% File represents an instance of a Composite Structure problem to be solved by a CP framework
% Created on 2025-03-25 14:06:10.986
T = 52;
n = 9;
m = 12;
edges = [(1, 2),
(5, 4),
(8, 7),
(2, 3),
(5, 6),
(8, 9),
(1, 4),
(4, 7),
(5, 2),
(8, 5),
(6, 3),
(9, 6)];
counts = [|4, 18, 20, 6,
|4, 14, 18, 6,
|4, 12, 12, 4,
|4, 18, 18, 4,
|4, 18, 20, 6,
|4, 18, 14, 6,
|2, 18, 18, 4,
|8, 18, 20, 6,
|4, 18, 18, 6|];
